benchmarks_CP/INST_64x64/40/inst64x64_40_22.dzn
S=8;
start=[|
-1,	51,	14,	57,	19,	-1,	44,	-1,	-1,	-1,	-1,	-1,	-1,	-1,	-1,	16,	6,	-1,	-1,	59,	-1,	-1,	22,	2,	33,	-1,	-1,	27,	-1,	-1,	-1,	23,	-1,	7,	21,	-1,	-1,	43,	13,	-1,	-1,	-1,	20,	-1,	-1,	-1,	42,	-1,	-1,	41,	45,	-1,	-1,	18,	-1,	-1,	17,	1,	-1,	-1,	-1,	26,	-1,	-1|
-1,	-1,	-1,	42,	62,	-1,	-1,	-1,	-1,	-1,	-1,	58,	-1,	-1,	-1,	49,	-1,	-1,	46,	-1,	-1,	-1,	-1,	13,	44,	-1,	-1,	2,	59,	43,	-1,	-1,	10,	-1,	-1,	-1,	-1,	51,	-1,	-1,	32,	-1,	-1,	-1,	-1,	48,	37,	45,	-1,	19,	38,	33,	-1,	24,	29,	-1,	5,	4,	-1,	-1,	20,	-1,	-1,	-1|
-1,	16,	34,	-1,	-1,	-1,	-1,	61,	-1,	32,	-1,	62,	-1,	24,	-1,	48,	-1,	14,	-1,	-1,	-1,	41,	20,	-1,	-1,	63,	-1,	-1,	-1,	5,	-1,	-1,	-1,	38,	-1,	-1,	-1,	45,	42,	-1,	-1,	17,	-1,	21,	8,	59,	-1,	-1,	30,	27,	-1,	-1,	64,	-1,	-1,	-1,	57,	18,	52,	-1,	-1,	47,	-1,	44|
29,	-1,	-1,	-1,	46,	9,	55,	-1,	-1,	20,	-1,	30,	18,	-1,	37,	-1,	-1,	43,	-1,	-1,	1,	-1,	-1,	-1,	51,	-1,	8,	41,	49,	-1,	-1,	45,	-1,	-1,	-1,	34,	-1,	15,	48,	-1,	61,	-1,	-1,	-1,	57,	-1,	-1,	25,	17,	-1,	-1,	54,	7,	12,	-1,	-1,	-1,	59,	27,	13,	64,	56,	-1,	-1|
41,	-1,	-1,	-1,	1,	-1,	58,	60,	-1,	-1,	-1,	-1,	-1,	-1,	57,	-1,	-1,	23,	-1,	-1,	-1,	-1,	39,	-1,	-1,	26,	-1,	-1,	22,	61,	-1,	31,	-1,	-1,	-1,	27,	-1,	-1,	-1,	62,	-1,	-1,	3,	-1,	19,	-1,	43,	-1,	42,	-1,	13,	-1,	-1,	-1,	-1,	-1,	15,	-1,	-1,	-1,	8,	49,	33,	32|
-1,	-1,	-1,	-1,	64,	-1,	-1,	-1,	-1,	59,	-1,	-1,	14,	-1,	27,	-1,	-1,	50,	-1,	63,	-1,	-1,	57,	-1,	-1,	46,	1,	-1,	54,	62,	15,	-1,	-1,	-1,	-1,	25,	-1,	33,	-1,	-1,	18,	28,	-1,	7,	-1,	-1,	-1,	-1,	3,	49,	61,	-1,	-1,	21,	-1,	-1,	-1,	-1,	-1,	40,	-1,	-1,	-1,	-1|
-1,	-1,	-1,	-1,	26,	38,	-1,	-1,	-1,	63,	-1,	54,	-1,	-1,	-1,	47,	27,	-1,	-1,	53,	62,	-1,	-1,	-1,	6,	35,	-1,	-1,	-1,	-1,	20,	-1,	-1,	49,	-1,	59,	4,	-1,	52,	29,	9,	14,	13,	39,	-1,	-1,	-1,	-1,	-1,	-1,	-1,	-1,	60,	43,	57,	10,	23,	36,	21,	34,	48,	46,	-1,	-1|
2,	17,	-1,	27,	-1,	-1,	-1,	8,	-1,	38,	-1,	39,	-1,	53,	1,	13,	4,	-1,	-1,	-1,	-1,	-1,	-1,	-1,	-1,	-1,	11,	9,	18,	-1,	-1,	21,	-1,	56,	-1,	-1,	3,	-1,	-1,	-1,	-1,	-1,	40,	24,	33,	-1,	46,	51,	-1,	-1,	-1,	-1,	34,	63,	14,	32,	55,	50,	-1,	37,	-1,	-1,	25,	45|
39,	7,	-1,	-1,	48,	-1,	13,	63,	-1,	-1,	27,	-1,	8,	-1,	-1,	2,	64,	36,	-1,	33,	-1,	17,	-1,	-1,	38,	5,	-1,	47,	3,	-1,	12,	15,	22,	6,	-1,	-1,	28,	-1,	-1,	-1,	30,	58,	-1,	-1,	-1,	4,	-1,	-1,	-1,	-1,	-1,	35,	43,	19,	1,	-1,	-1,	46,	-1,	-1,	10,	37,	16,	-1|
-1,	-1,	-1,	-1,	-1,	-1,	-1,	-1,	-1,	22,	-1,	36,	6,	-1,	-1,	15,	-1,	29,	58,	-1,	54,	-1,	-1,	-1,	37,	-1,	51,	44,	-1,	-1,	43,	57,	-1,	-1,	-1,	-1,	-1,	-1,	-1,	-1,	-1,	-1,	46,	-1,	14,	-1,	-1,	-1,	53,	-1,	-1,	-1,	3,	-1,	4,	-1,	28,	-1,	62,	1,	-1,	39,	30,	7|
21,	4,	57,	-1,	-1,	-1,	-1,	16,	-1,	-1,	3,	-1,	-1,	17,	23,	19,	-1,	51,	-1,	43,	-1,	44,	-1,	-1,	20,	-1,	35,	8,	-1,	56,	49,	-1,	15,	52,	-1,	-1,	-1,	-1,	-1,	14,	48,	-1,	-1,	54,	11,	-1,	39,	24,	26,	63,	46,	-1,	40,	-1,	-1,	7,	45,	-1,	18,	-1,	-1,	12,	-1,	38|
-1,	-1,	-1,	-1,	-1,	17,	-1,	45,	-1,	-1,	20,	57,	4,	-1,	51,	-1,	-1,	-1,	-1,	-1,	6,	-1,	19,	1,	-1,	-1,	34,	-1,	28,	7,	-1,	-1,	62,	-1,	-1,	-1,	-1,	-1,	50,	43,	-1,	-1,	-1,	-1,	-1,	-1,	40,	18,	-1,	32,	2,	-1,	-1,	5,	12,	-1,	-1,	-1,	-1,	-1,	-1,	-1,	36,	27|
19,	-1,	-1,	43,	32,	22,	-1,	-1,	-1,	-1,	-1,	-1,	-1,	-1,	-1,	-1,	61,	-1,	-1,	42,	57,	-1,	-1,	-1,	-1,	-1,	25,	33,	-1,	-1,	-1,	-1,	-1,	18,	-1,	-1,	-1,	12,	21,	9,	-1,	-1,	-1,	6,	-1,	27,	-1,	-1,	-1,	-1,	-1,	-1,	-1,	-1,	8,	54,	-1,	-1,	-1,	35,	-1,	53,	-1,	4|
-1,	-1,	-1,	-1,	54,	-1,	56,	-1,	64,	-1,	-1,	28,	-1,	-1,	-1,	-1,	-1,	-1,	-1,	35,	-1,	-1,	-1,	-1,	-1,	-1,	-1,	-1,	-1,	-1,	53,	62,	-1,	42,	-1,	63,	46,	-1,	30,	-1,	-1,	36,	-1,	-1,	-1,	-1,	19,	-1,	-1,	18,	-1,	-1,	-1,	-1,	-1,	6,	50,	8,	-1,	-1,	-1,	-1,	-1,	43|
-1,	-1,	-1,	-1,	-1,	44,	-1,	18,	-1,	61,	-1,	-1,	33,	-1,	-1,	-1,	-1,	-1,	15,	-1,	-1,	-1,	46,	-1,	-1,	42,	-1,	59,	50,	-1,	64,	54,	-1,	17,	-1,	20,	-1,	-1,	53,	-1,	-1,	7,	-1,	38,	35,	28,	-1,	-1,	-1,	-1,	-1,	62,	-1,	-1,	30,	-1,	-1,	25,	-1,	-1,	-1,	63,	-1,	55|
-1,	-1,	-1,	-1,	51,	-1,	-1,	-1,	-1,	-1,	12,	-1,	43,	-1,	-1,	42,	-1,	16,	-1,	-1,	10,	-1,	37,	-1,	18,	-1,	36,	-1,	-1,	17,	-1,	-1,	54,	29,	-1,	44,	-1,	48,	-1,	-1,	8,	55,	-1,	-1,	64,	-1,	59,	23,	-1,	-1,	-1,	-1,	-1,	-1,	56,	57,	52,	-1,	60,	-1,	19,	2,	-1,	40|
-1,	-1,	-1,	23,	-1,	-1,	19,	-1,	-1,	-1,	41,	-1,	55,	-1,	-1,	61,	-1,	-1,	20,	-1,	-1,	-1,	-1,	-1,	60,	-1,	47,	57,	-1,	-1,	-1,	35,	-1,	-1,	52,	42,	43,	-1,	-1,	38,	-1,	48,	-1,	-1,	-1,	2,	-1,	33,	-1,	-1,	-1,	-1,	-1,	-1,	-1,	-1,	-1,	53,	-1,	-1,	49,	-1,	-1,	-1|
-1,	59,	-1,	-1,	53,	18,	15,	41,	38,	14,	-1,	-1,	-1,	-1,	-1,	-1,	10,	57,	9,	-1,	-1,	-1,	-1,	46,	-1,	-1,	-1,	-1,	-1,	-1,	-1,	-1,	-1,	-1,	-1,	-1,	-1,	-1,	-1,	61,	40,	52,	30,	-1,	-1,	-1,	-1,	-1,	-1,	-1,	-1,	11,	-1,	-1,	-1,	2,	-1,	7,	-1,	26,	-1,	25,	17,	-1|
47,	26,	-1,	45,	-1,	-1,	25,	-1,	19,	-1,	-1,	-1,	-1,	-1,	18,	40,	31,	-1,	55,	-1,	-1,	-1,	27,	11,	-1,	-1,	-1,	30,	-1,	-1,	-1,	16,	-1,	-1,	-1,	13,	57,	53,	-1,	-1,	14,	-1,	29,	-1,	37,	-1,	-1,	-1,	54,	-1,	60,	7,	-1,	-1,	-1,	-1,	8,	12,	-1,	51,	-1,	-1,	-1,	22|
54,	-1,	-1,	-1,	-1,	-1,	-1,	-1,	-1,	-1,	-1,	8,	-1,	-1,	-1,	-1,	-1,	-1,	24,	30,	-1,	-1,	-1,	-1,	-1,	18,	-1,	6,	-1,	53,	-1,	-1,	-1,	-1,	-1,	47,	-1,	-1,	25,	-1,	7,	-1,	-1,	64,	-1,	-1,	-1,	-1,	-1,	58,	4,	-1,	-1,	-1,	-1,	-1,	59,	52,	-1,	-1,	-1,	-1,	-1,	-1|
30,	-1,	-1,	24,	-1,	64,	-1,	-1,	11,	13,	-1,	26,	-1,	-1,	53,	57,	-1,	-1,	-1,	23,	-1,	-1,	-1,	-1,	56,	-1,	55,	1,	-1,	33,	-1,	-1,	-1,	-1,	-1,	58,	-1,	-1,	9,	12,	21,	49,	18,	41,	38,	25,	-1,	-1,	-1,	-1,	52,	46,	22,	-1,	-1,	-1,	54,	-1,	-1,	-1,	37,	-1,	-1,	-1|
48,	-1,	49,	-1,	40,	32,	6,	-1,	-1,	44,	-1,	21,	37,	15,	-1,	39,	26,	61,	-1,	-1,	50,	-1,	-1,	-1,	27,	-1,	59,	-1,	-1,	-1,	41,	63,	16,	-1,	4,	-1,	-1,	-1,	28,	-1,	1,	10,	-1,	-1,	34,	-1,	-1,	54,	-1,	-1,	-1,	-1,	53,	-1,	62,	-1,	-1,	33,	-1,	5,	42,	55,	-1,	-1|
-1,	61,	-1,	-1,	33,	-1,	35,	-1,	-1,	-1,	28,	25,	56,	-1,	-1,	1,	-1,	-1,	21,	2,	-1,	-1,	-1,	-1,	-1,	-1,	17,	-1,	-1,	44,	-1,	-1,	-1,	54,	-1,	29,	32,	31,	18,	-1,	-1,	51,	39,	55,	24,	-1,	-1,	26,	57,	-1,	-1,	12,	-1,	50,	-1,	27,	16,	-1,	-1,	-1,	-1,	-1,	43,	-1|
-1,	63,	-1,	-1,	57,	-1,	-1,	-1,	27,	43,	-1,	-1,	24,	-1,	-1,	54,	-1,	39,	18,	-1,	64,	-1,	-1,	-1,	-1,	-1,	-1,	-1,	-1,	-1,	-1,	-1,	20,	-1,	10,	51,	62,	2,	26,	-1,	58,	-1,	53,	5,	9,	42,	-1,	-1,	-1,	-1,	16,	-1,	8,	-1,	55,	41,	-1,	30,	35,	-1,	-1,	-1,	-1,	6|
58,	-1,	-1,	-1,	-1,	-1,	-1,	11,	-1,	23,	21,	-1,	-1,	29,	-1,	-1,	-1,	-1,	-1,	51,	22,	-1,	41,	-1,	36,	-1,	-1,	-1,	-1,	18,	63,	-1,	55,	44,	-1,	60,	-1,	37,	-1,	-1,	-1,	26,	54,	-1,	28,	-1,	-1,	6,	59,	-1,	-1,	-1,	61,	-1,	25,	56,	-1,	-1,	-1,	-1,	-1,	24,	45,	8|
-1,	-1,	41,	25,	-1,	-1,	47,	-1,	-1,	-1,	42,	-1,	58,	-1,	-1,	37,	63,	-1,	-1,	-1,	-1,	-1,	-1,	59,	-1,	56,	-1,	-1,	-1,	-1,	-1,	-1,	38,	-1,	54,	-1,	-1,	-1,	-1,	-1,	-1,	-1,	57,	-1,	-1,	44,	-1,	15,	31,	-1,	-1,	52,	-1,	1,	22,	62,	-1,	11,	32,	-1,	26,	-1,	-1,	-1|
24,	56,	-1,	9,	12,	-1,	43,	-1,	-1,	-1,	45,	6,	53,	34,	-1,	52,	-1,	60,	-1,	54,	-1,	-1,	-1,	-1,	1,	-1,	-1,	-1,	44,	-1,	-1,	-1,	14,	-1,	-1,	-1,	-1,	62,	-1,	-1,	4,	30,	8,	25,	39,	64,	48,	40,	50,	-1,	-1,	-1,	-1,	49,	35,	-1,	-1,	-1,	23,	-1,	-1,	-1,	58,	-1|
-1,	-1,	-1,	-1,	15,	45,	60,	-1,	-1,	39,	9,	-1,	-1,	47,	36,	56,	35,	31,	-1,	-1,	25,	49,	-1,	57,	58,	-1,	53,	-1,	-1,	24,	37,	-1,	61,	21,	29,	-1,	-1,	27,	-1,	34,	-1,	62,	-1,	42,	-1,	-1,	38,	43,	-1,	28,	-1,	23,	19,	-1,	3,	-1,	4,	51,	-1,	-1,	-1,	-1,	18,	1|
-1,	-1,	-1,	-1,	-1,	-1,	-1,	-1,	-1,	27,	-1,	20,	-1,	8,	-1,	24,	-1,	-1,	61,	-1,	15,	34,	-1,	58,	-1,	57,	-1,	-1,	-1,	-1,	-1,	40,	53,	-1,	13,	-1,	-1,	4,	-1,	-1,	-1,	-1,	63,	-1,	-1,	-1,	-1,	-1,	-1,	-1,	36,	-1,	37,	-1,	-1,	-1,	-1,	38,	-1,	47,	-1,	-1,	-1,	64|
-1,	-1,	-1,	44,	27,	37,	-1,	-1,	-1,	51,	-1,	-1,	-1,	64,	13,	-1,	-1,	-1,	-1,	-1,	-1,	7,	-1,	-1,	-1,	-1,	-1,	-1,	43,	23,	-1,	-1,	56,	-1,	-1,	40,	-1,	28,	39,	-1,	17,	16,	-1,	49,	12,	-1,	31,	50,	-1,	54,	32,	-1,	29,	-1,	-1,	20,	-1,	2,	-1,	61,	-1,	-1,	-1,	53|
1,	20,	-1,	16,	61,	-1,	-1,	-1,	-1,	10,	-1,	-1,	-1,	-1,	-1,	-1,	-1,	-1,	43,	9,	-1,	-1,	36,	-1,	-1,	-1,	49,	35,	-1,	-1,	-1,	-1,	23,	-1,	-1,	6,	-1,	58,	-1,	31,	24,	-1,	27,	-1,	-1,	-1,	-1,	11,	34,	-1,	53,	-1,	-1,	-1,	-1,	14,	40,	21,	29,	41,	56,	44,	55,	-1|
-1,	-1,	-1,	-1,	-1,	-1,	-1,	-1,	5,	-1,	22,	-1,	25,	-1,	-1,	55,	-1,	13,	-1,	44,	-1,	30,	-1,	-1,	-1,	-1,	20,	-1,	34,	59,	-1,	17,	49,	-1,	-1,	3,	-1,	-1,	64,	-1,	-1,	47,	58,	9,	-1,	56,	51,	41,	-1,	-1,	-1,	-1,	-1,	10,	26,	39,	60,	-1,	31,	-1,	46,	-1,	-1,	-1|
-1,	36,	-1,	-1,	-1,	-1,	-1,	-1,	-1,	16,	-1,	4,	-1,	-1,	-1,	-1,	-1,	62,	34,	-1,	47,	12,	-1,	-1,	35,	11,	64,	-1,	-1,	-1,	56,	-1,	-1,	-1,	-1,	-1,	-1,	8,	-1,	-1,	38,	-1,	-1,	-1,	2,	-1,	54,	-1,	-1,	50,	42,	22,	-1,	33,	-1,	-1,	21,	-1,	6,	-1,	-1,	30,	-1,	52|
-1,	47,	15,	-1,	-1,	52,	16,	-1,	21,	-1,	-1,	-1,	-1,	-1,	-1,	-1,	22,	9,	48,	-1,	13,	-1,	53,	36,	-1,	-1,	-1,	-1,	-1,	8,	-1,	29,	-1,	-1,	59,	-1,	14,	-1,	-1,	-1,	57,	-1,	28,	-1,	25,	-1,	24,	62,	51,	-1,	-1,	-1,	-1,	34,	-1,	-1,	27,	23,	-1,	63,	3,	-1,	-1,	-1|
-1,	-1,	-1,	19,	28,	61,	-1,	-1,	13,	-1,	-1,	-1,	-1,	59,	-1,	-1,	-1,	17,	-1,	-1,	-1,	54,	-1,	-1,	-1,	-1,	-1,	-1,	25,	38,	57,	-1,	-1,	47,	-1,	-1,	7,	-1,	-1,	63,	6,	-1,	60,	-1,	1,	-1,	-1,	-1,	5,	-1,	-1,	36,	-1,	-1,	48,	45,	-1,	24,	-1,	-1,	-1,	14,	12,	-1|
27,	48,	33,	-1,	-1,	-1,	-1,	14,	45,	-1,	53,	-1,	28,	57,	-1,	-1,	-1,	49,	-1,	-1,	-1,	-1,	-1,	-1,	47,	-1,	9,	55,	-1,	41,	-1,	-1,	42,	37,	-1,	-1,	51,	-1,	-1,	2,	16,	-1,	12,	50,	-1,	43,	-1,	-1,	19,	-1,	-1,	-1,	26,	-1,	44,	63,	1,	-1,	-1,	29,	18,	35,	8,	-1|
11,	-1,	-1,	-1,	-1,	-1,	3,	-1,	46,	-1,	50,	-1,	-1,	-1,	35,	-1,	1,	18,	41,	57,	-1,	33,	-1,	64,	45,	15,	16,	39,	-1,	60,	-1,	48,	-1,	-1,	-1,	30,	58,	19,	44,	-1,	-1,	5,	-1,	-1,	-1,	-1,	-1,	-1,	-1,	-1,	-1,	8,	-1,	55,	-1,	52,	49,	20,	-1,	-1,	53,	-1,	37,	-1|
-1,	9,	64,	-1,	-1,	-1,	4,	-1,	-1,	30,	8,	-1,	39,	42,	49,	-1,	-1,	-1,	-1,	6,	38,	27,	-1,	-1,	-1,	2,	-1,	-1,	19,	-1,	-1,	36,	-1,	-1,	62,	-1,	-1,	-1,	20,	-1,	-1,	-1,	33,	-1,	-1,	23,	-1,	-1,	-1,	-1,	-1,	-1,	-1,	3,	53,	-1,	-1,	-1,	-1,	-1,	-1,	45,	13,	25|
25,	62,	12,	8,	-1,	2,	1,	51,	-1,	36,	-1,	-1,	-1,	9,	47,	-1,	-1,	-1,	-1,	-1,	-1,	26,	28,	-1,	-1,	7,	43,	-1,	27,	-1,	-1,	-1,	-1,	4,	35,	-1,	29,	-1,	10,	-1,	13,	-1,	-1,	22,	-1,	-1,	-1,	53,	-1,	-1,	11,	-1,	-1,	-1,	-1,	-1,	61,	-1,	-1,	-1,	-1,	34,	57,	-1|
-1,	29,	-1,	-1,	-1,	39,	-1,	-1,	-1,	-1,	64,	14,	26,	-1,	-1,	27,	30,	-1,	-1,	-1,	37,	-1,	-1,	-1,	-1,	-1,	-1,	62,	-1,	12,	-1,	-1,	-1,	60,	-1,	-1,	-1,	6,	-1,	40,	-1,	45,	-1,	-1,	59,	51,	-1,	9,	-1,	-1,	-1,	-1,	-1,	16,	-1,	13,	-1,	-1,	-1,	-1,	-1,	-1,	48,	-1|
31,	6,	60,	48,	39,	-1,	36,	9,	-1,	-1,	-1,	-1,	40,	43,	-1,	-1,	-1,	-1,	-1,	-1,	-1,	-1,	5,	-1,	41,	59,	19,	-1,	16,	-1,	-1,	-1,	-1,	35,	-1,	-1,	56,	7,	-1,	47,	-1,	-1,	15,	-1,	-1,	-1,	-1,	-1,	-1,	-1,	58,	30,	-1,	62,	45,	-1,	18,	-1,	49,	25,	14,	-1,	53,	57|
-1,	-1,	20,	54,	59,	58,	-1,	-1,	34,	12,	14,	13,	-1,	39,	-1,	9,	-1,	-1,	49,	50,	11,	-1,	42,	4,	-1,	-1,	-1,	-1,	52,	-1,	-1,	-1,	30,	-1,	61,	46,	-1,	40,	27,	-1,	41,	2,	-1,	48,	-1,	-1,	-1,	19,	1,	-1,	-1,	37,	15,	-1,	-1,	-1,	26,	-1,	22,	-1,	-1,	-1,	-1,	-1|
-1,	-1,	38,	-1,	25,	-1,	27,	22,	-1,	-1,	15,	47,	-1,	46,	32,	20,	18,	-1,	53,	-1,	3,	-1,	-1,	-1,	-1,	-1,	-1,	-1,	56,	55,	-1,	34,	33,	64,	48,	-1,	-1,	13,	12,	-1,	54,	-1,	-1,	-1,	-1,	-1,	-1,	-1,	2,	-1,	-1,	28,	-1,	-1,	-1,	-1,	-1,	-1,	1,	-1,	44,	52,	-1,	17|
-1,	-1,	-1,	47,	43,	-1,	-1,	21,	-1,	-1,	18,	-1,	-1,	33,	-1,	-1,	-1,	54,	14,	15,	-1,	38,	2,	-1,	13,	20,	-1,	-1,	-1,	-1,	40,	44,	17,	-1,	9,	-1,	-1,	-1,	4,	28,	-1,	-1,	36,	-1,	3,	-1,	-1,	35,	10,	-1,	26,	51,	-1,	-1,	-1,	-1,	46,	-1,	-1,	58,	-1,	41,	59,	-1|
42,	-1,	40,	51,	-1,	15,	-1,	-1,	-1,	21,	-1,	-1,	-1,	-1,	-1,	-1,	-1,	63,	-1,	27,	55,	-1,	43,	35,	14,	-1,	-1,	-1,	-1,	1,	-1,	9,	-1,	53,	-1,	19,	44,	32,	41,	-1,	-1,	29,	-1,	-1,	52,	-1,	-1,	46,	-1,	-1,	-1,	-1,	31,	11,	-1,	-1,	30,	-1,	-1,	-1,	-1,	-1,	47,	20|
-1,	57,	56,	-1,	-1,	46,	-1,	1,	-1,	28,	-1,	-1,	52,	45,	-1,	-1,	-1,	-1,	-1,	-1,	-1,	58,	-1,	61,	53,	-1,	-1,	-1,	-1,	39,	-1,	27,	-1,	-1,	-1,	62,	-1,	-1,	-1,	-1,	51,	-1,	9,	-1,	-1,	-1,	-1,	8,	43,	47,	-1,	19,	-1,	14,	-1,	49,	-1,	-1,	-1,	-1,	63,	-1,	-1,	-1|
64,	-1,	18,	-1,	11,	29,	2,	-1,	17,	-1,	-1,	-1,	38,	-1,	44,	35,	-1,	46,	-1,	-1,	52,	39,	30,	40,	32,	54,	62,	-1,	-1,	-1,	23,	-1,	-1,	-1,	15,	37,	-1,	-1,	-1,	-1,	-1,	-1,	21,	53,	27,	-1,	-1,	-1,	-1,	56,	7,	20,	-1,	36,	50,	-1,	-1,	-1,	48,	43,	9,	-1,	60,	-1|
-1,	-1,	-1,	-1,	-1,	-1,	-1,	34,	-1,	54,	61,	-1,	-1,	-1,	-1,	-1,	-1,	-1,	64,	-1,	-1,	-1,	-1,	-1,	46,	49,	45,	-1,	57,	-1,	11,	50,	-1,	43,	14,	-1,	-1,	-1,	-1,	-1,	-1,	-1,	-1,	-1,	-1,	6,	-1,	55,	-1,	-1,	-1,	-1,	-1,	44,	-1,	48,	-1,	56,	2,	28,	-1,	16,	-1,	36|
-1,	-1,	-1,	12,	-1,	-1,	-1,	40,	-1,	-1,	54,	2,	-1,	55,	-1,	-1,	-1,	-1,	13,	-1,	-1,	16,	8,	44,	-1,	60,	14,	-1,	-1,	35,	10,	1,	-1,	-1,	5,	33,	-1,	52,	-1,	-1,	-1,	41,	4,	28,	48,	-1,	-1,	-1,	-1,	-1,	-1,	-1,	-1,	-1,	-1,	25,	-1,	-1,	-1,	-1,	29,	-1,	-1,	15|
-1,	-1,	-1,	-1,	4,	-1,	61,	19,	12,	17,	-1,	52,	7,	51,	-1,	-1,	42,	34,	37,	-1,	-1,	-1,	-1,	-1,	-1,	-1,	-1,	-1,	26,	9,	-1,	-1,	45,	-1,	22,	-1,	64,	-1,	63,	10,	-1,	54,	-1,	-1,	-1,	-1,	6,	-1,	-1,	-1,	-1,	-1,	58,	20,	-1,	30,	-1,	-1,	-1,	-1,	-1,	-1,	-1,	-1|
35,	54,	1,	-1,	-1,	-1,	9,	-1,	-1,	34,	-1,	-1,	19,	-1,	-1,	-1,	-1,	-1,	6,	61,	-1,	5,	-1,	-1,	22,	-1,	63,	-1,	2,	-1,	-1,	56,	36,	-1,	-1,	-1,	13,	41,	37,	15,	-1,	-1,	50,	30,	-1,	33,	21,	-1,	52,	-1,	-1,	-1,	10,	53,	-1,	12,	-1,	-1,	45,	-1,	-1,	-1,	-1,	-1|
33,	23,	-1,	-1,	-1,	16,	37,	-1,	-1,	15,	-1,	-1,	44,	-1,	20,	64,	25,	11,	-1,	-1,	-1,	-1,	1,	21,	-1,	-1,	28,	-1,	-1,	52,	-1,	-1,	4,	34,	42,	-1,	-1,	-1,	-1,	-1,	-1,	-1,	-1,	58,	-1,	31,	7,	-1,	-1,	-1,	-1,	-1,	-1,	40,	-1,	-1,	-1,	10,	13,	-1,	-1,	-1,	56,	-1|
-1,	-1,	-1,	5,	-1,	-1,	-1,	-1,	-1,	62,	-1,	18,	1,	-1,	-1,	60,	-1,	-1,	-1,	48,	-1,	-1,	-1,	-1,	64,	25,	41,	-1,	-1,	-1,	-1,	-1,	29,	46,	-1,	12,	-1,	-1,	-1,	44,	35,	-1,	-1,	-1,	26,	15,	-1,	27,	-1,	-1,	-1,	-1,	-1,	2,	-1,	-1,	34,	-1,	-1,	36,	-1,	7,	-1,	63|
46,	22,	55,	-1,	-1,	-1,	-1,	6,	37,	-1,	-1,	40,	21,	-1,	-1,	59,	15,	10,	30,	17,	63,	-1,	-1,	27,	39,	-1,	-1,	-1,	-1,	-1,	-1,	19,	-1,	-1,	-1,	-1,	-1,	-1,	-1,	-1,	34,	-1,	11,	43,	-1,	5,	-1,	1,	47,	-1,	-1,	-1,	-1,	7,	-1,	61,	-1,	-1,	-1,	52,	-1,	-1,	-1,	-1|
34,	-1,	-1,	-1,	13,	3,	-1,	-1,	58,	-1,	25,	63,	61,	-1,	-1,	23,	-1,	-1,	-1,	-1,	-1,	50,	-1,	-1,	-1,	21,	-1,	-1,	46,	4,	33,	-1,	43,	-1,	-1,	-1,	-1,	-1,	1,	-1,	-1,	53,	52,	-1,	-1,	-1,	-1,	-1,	-1,	9,	37,	-1,	51,	-1,	-1,	29,	-1,	-1,	-1,	42,	-1,	-1,	-1,	12|
52,	-1,	-1,	-1,	41,	-1,	29,	-1,	-1,	57,	31,	-1,	9,	35,	16,	10,	-1,	-1,	36,	3,	39,	55,	40,	62,	-1,	-1,	-1,	-1,	-1,	-1,	-1,	-1,	11,	-1,	2,	56,	-1,	-1,	19,	-1,	25,	-1,	-1,	-1,	49,	-1,	-1,	-1,	-1,	46,	-1,	34,	4,	-1,	-1,	26,	53,	-1,	44,	18,	-1,	-1,	38,	61|
61,	-1,	-1,	-1,	14,	31,	57,	-1,	-1,	-1,	2,	-1,	-1,	-1,	-1,	12,	-1,	-1,	-1,	-1,	-1,	-1,	-1,	48,	23,	64,	44,	20,	-1,	-1,	60,	41,	-1,	-1,	39,	17,	27,	-1,	-1,	-1,	19,	38,	25,	-1,	-1,	-1,	52,	56,	-1,	-1,	18,	42,	-1,	29,	63,	-1,	51,	-1,	-1,	-1,	4,	-1,	-1,	-1|
37,	55,	-1,	-1,	42,	-1,	-1,	-1,	63,	64,	38,	-1,	-1,	30,	-1,	31,	21,	-1,	-1,	-1,	-1,	-1,	23,	-1,	-1,	-1,	6,	19,	-1,	46,	8,	18,	-1,	36,	-1,	-1,	-1,	-1,	11,	16,	3,	43,	14,	2,	45,	-1,	-1,	-1,	27,	-1,	-1,	-1,	62,	-1,	10,	59,	32,	-1,	-1,	12,	57,	-1,	52,	34|
-1,	-1,	-1,	64,	36,	8,	-1,	-1,	-1,	-1,	-1,	-1,	-1,	-1,	-1,	11,	46,	-1,	42,	4,	-1,	29,	14,	-1,	54,	45,	-1,	-1,	-1,	-1,	-1,	37,	41,	32,	-1,	24,	-1,	3,	-1,	58,	-1,	18,	62,	-1,	63,	13,	-1,	48,	12,	-1,	-1,	43,	-1,	39,	-1,	-1,	-1,	-1,	-1,	-1,	-1,	-1,	50,	47|
16,	60,	62,	2,	24,	23,	-1,	-1,	18,	-1,	36,	32,	-1,	-1,	-1,	-1,	9,	-1,	-1,	37,	-1,	3,	10,	-1,	26,	-1,	-1,	56,	-1,	-1,	-1,	-1,	-1,	12,	-1,	-1,	52,	29,	-1,	48,	49,	-1,	5,	-1,	40,	39,	41,	-1,	-1,	-1,	22,	53,	-1,	-1,	-1,	-1,	-1,	-1,	-1,	15,	27,	-1,	-1,	35|
17,	-1,	7,	41,	-1,	-1,	-1,	33,	-1,	-1,	-1,	15,	-1,	-1,	-1,	-1,	-1,	-1,	-1,	-1,	-1,	64,	52,	-1,	21,	-1,	-1,	-1,	36,	48,	-1,	2,	-1,	-1,	-1,	-1,	-1,	-1,	-1,	-1,	-1,	-1,	-1,	11,	-1,	-1,	-1,	32,	46,	-1,	-1,	-1,	28,	57,	31,	-1,	-1,	-1,	-1,	-1,	-1,	-1,	29,	-1|
-1,	-1,	-1,	-1,	-1,	26,	-1,	-1,	-1,	-1,	55,	35,	-1,	-1,	19,	50,	11,	-1,	-1,	-1,	44,	-1,	51,	31,	-1,	-1,	-1,	-1,	5,	-1,	-1,	59,	34,	-1,	-1,	-1,	-1,	18,	22,	-1,	-1,	1,	24,	-1,	-1,	60,	-1,	-1,	-1,	-1,	-1,	3,	36,	54,	52,	4,	-1,	-1,	-1,	-1,	45,	-1,	-1,	-1|
-1,	-1,	-1,	-1,	-1,	-1,	-1,	47,	22,	-1,	24,	44,	-1,	-1,	-1,	-1,	-1,	-1,	39,	1,	-1,	-1,	35,	50,	-1,	16,	40,	-1,	62,	63,	-1,	33,	-1,	-1,	57,	-1,	-1,	25,	49,	-1,	36,	-1,	64,	29,	30,	7,	27,	31,	-1,	-1,	55,	-1,	-1,	8,	-1,	19,	-1,	28,	43,	48,	-1,	38,	20,	-1|
45,	-1,	51,	59,	-1,	-1,	-1,	-1,	-1,	-1,	-1,	5,	-1,	27,	33,	28,	36,	-1,	19,	32,	-1,	57,	15,	6,	-1,	-1,	-1,	-1,	-1,	47,	52,	12,	-1,	-1,	-1,	-1,	-1,	38,	-1,	-1,	53,	-1,	16,	4,	-1,	9,	-1,	17,	-1,	-1,	-1,	-1,	2,	-1,	23,	1,	-1,	49,	-1,	8,	-1,	-1,	-1,	54|];
