benchmarks_LEQ/INST_64x64/40/inst64x64_40_22.txt
8
1
-1	-1	14	-1	-1	40	-1	-1	61	-1	-1	-1	64	28	-1	16	6	-1	-1	59	-1	-1	22	2	33	32	-1	27	39	34	-1	-1	-1	-1	21	-1	-1	-1	-1	55	11	12	-1	-1	62	-1	42	-1	25	-1	-1	48	-1	18	-1	-1	-1	1	-1	-1	-1	-1	63	31
-1	31	-1	42	-1	-1	54	-1	41	-1	-1	-1	50	-1	26	49	-1	47	-1	-1	-1	-1	-1	-1	-1	-1	-1	-1	59	-1	-1	-1	-1	63	8	-1	-1	-1	60	39	-1	27	-1	-1	53	48	37	-1	-1	-1	-1	-1	1	-1	-1	36	-1	4	-1	9	-1	-1	-1	14
43	-1	-1	-1	-1	36	22	61	-1	-1	-1	-1	12	-1	60	-1	-1	14	-1	56	-1	-1	20	-1	10	-1	37	-1	-1	-1	-1	7	-1	-1	50	2	-1	-1	-1	-1	-1	-1	-1	21	-1	-1	26	4	30	27	-1	39	-1	-1	-1	-1	-1	-1	-1	-1	-1	-1	-1	-1
-1	-1	-1	-1	-1	9	-1	-1	-1	20	44	-1	-1	31	37	3	40	43	11	-1	1	24	-1	-1	51	47	8	41	-1	-1	14	-1	-1	58	32	-1	53	-1	48	-1	-1	63	-1	60	57	50	2	-1	-1	-1	-1	54	7	12	-1	22	-1	-1	27	13	-1	-1	39	62
-1	50	-1	-1	-1	47	-1	-1	29	-1	-1	45	2	-1	-1	-1	-1	-1	44	-1	-1	-1	-1	30	-1	26	-1	16	-1	-1	17	31	64	-1	-1	27	-1	14	24	-1	-1	-1	-1	36	19	54	43	-1	-1	-1	13	-1	52	-1	-1	-1	-1	-1	7	10	-1	-1	-1	-1
13	-1	24	35	-1	-1	-1	39	9	59	-1	55	-1	-1	-1	-1	-1	-1	26	-1	-1	-1	-1	38	-1	46	-1	48	-1	-1	15	60	-1	-1	-1	-1	37	33	-1	-1	-1	28	23	-1	-1	47	34	-1	3	-1	61	-1	-1	-1	-1	-1	-1	41	53	40	-1	43	-1	2
12	-1	-1	37	26	-1	-1	56	33	63	-1	-1	-1	-1	-1	-1	-1	45	-1	-1	-1	-1	-1	15	-1	-1	-1	40	-1	30	-1	-1	-1	-1	-1	59	-1	-1	-1	29	-1	-1	-1	-1	-1	55	-1	-1	-1	-1	50	-1	-1	-1	57	10	23	36	-1	-1	48	-1	-1	-1
2	-1	-1	27	10	20	-1	-1	15	-1	-1	-1	-1	-1	-1	-1	4	-1	-1	31	49	61	-1	-1	12	-1	11	9	-1	57	-1	-1	47	56	-1	16	3	22	-1	30	-1	64	-1	-1	33	-1	-1	51	62	44	23	26	34	-1	-1	-1	55	-1	58	37	-1	-1	25	45
-1	-1	-1	52	-1	-1	-1	63	24	18	-1	9	8	62	-1	-1	64	-1	-1	-1	40	17	-1	-1	-1	-1	23	-1	-1	-1	-1	-1	-1	-1	60	11	28	55	-1	-1	-1	58	26	44	-1	4	53	-1	-1	-1	-1	35	-1	19	-1	-1	-1	-1	56	-1	10	-1	16	-1
-1	49	10	38	47	-1	-1	5	-1	22	-1	36	6	63	-1	-1	8	-1	58	18	54	23	-1	24	37	-1	51	-1	41	-1	43	57	2	-1	-1	-1	34	59	-1	64	-1	-1	46	-1	-1	-1	-1	-1	53	16	-1	27	3	-1	-1	42	-1	13	62	-1	32	39	-1	7
-1	-1	-1	-1	-1	55	42	-1	-1	-1	-1	60	10	-1	-1	-1	53	51	-1	43	-1	44	-1	-1	-1	-1	35	-1	-1	-1	-1	61	15	-1	36	-1	-1	1	-1	-1	-1	-1	-1	-1	-1	-1	-1	-1	-1	63	46	-1	40	-1	64	-1	-1	29	-1	-1	-1	-1	-1	-1
59	64	35	58	30	-1	14	45	54	53	20	57	4	-1	-1	44	3	-1	-1	-1	6	-1	19	1	-1	52	-1	-1	28	7	-1	10	62	-1	-1	-1	47	23	-1	43	60	-1	-1	16	-1	-1	40	18	-1	32	2	-1	-1	-1	12	37	-1	42	9	-1	-1	-1	-1	-1
19	-1	-1	43	-1	-1	34	62	-1	-1	-1	37	-1	-1	52	-1	61	-1	-1	42	57	31	26	41	-1	13	-1	-1	60	-1	1	14	-1	18	-1	-1	-1	-1	-1	-1	56	3	47	-1	15	-1	29	-1	-1	20	-1	-1	-1	45	-1	-1	48	-1	-1	-1	24	-1	-1	-1
15	12	25	-1	54	27	56	-1	-1	49	-1	-1	-1	-1	-1	-1	47	-1	-1	-1	20	-1	-1	-1	-1	-1	-1	4	21	16	-1	-1	-1	42	-1	63	46	-1	30	3	10	36	51	57	-1	-1	-1	-1	13	-1	-1	-1	17	48	-1	6	-1	8	-1	-1	58	5	-1	43
8	-1	31	-1	-1	44	23	18	16	-1	-1	-1	-1	-1	58	14	-1	-1	-1	-1	-1	56	-1	-1	19	-1	-1	59	50	-1	-1	-1	-1	-1	-1	20	-1	-1	-1	-1	-1	-1	32	-1	35	-1	1	-1	-1	21	-1	-1	24	-1	30	60	47	-1	-1	57	41	-1	-1	-1
-1	1	-1	46	-1	-1	24	-1	30	35	-1	41	-1	-1	50	42	-1	-1	-1	-1	-1	-1	-1	39	-1	27	36	-1	-1	17	-1	-1	-1	29	58	44	-1	-1	-1	-1	8	-1	49	-1	-1	-1	-1	-1	-1	-1	33	-1	11	-1	56	-1	-1	-1	60	-1	-1	-1	34	40
62	28	-1	-1	-1	-1	-1	58	-1	-1	-1	64	-1	-1	-1	-1	54	37	-1	-1	45	-1	-1	8	60	-1	47	57	-1	-1	29	35	39	30	-1	42	-1	-1	-1	38	50	48	-1	-1	-1	-1	-1	-1	-1	34	-1	32	-1	-1	5	51	-1	53	4	56	-1	-1	-1	18
51	59	44	-1	53	18	15	-1	38	14	29	-1	-1	-1	-1	-1	-1	-1	-1	-1	-1	1	63	-1	-1	43	-1	32	37	-1	-1	-1	-1	33	-1	55	22	64	-1	61	-1	52	-1	-1	-1	-1	-1	-1	56	-1	-1	-1	-1	-1	20	-1	-1	-1	-1	26	-1	25	17	-1
47	-1	-1	-1	-1	-1	25	-1	-1	-1	62	-1	-1	-1	-1	40	-1	-1	-1	-1	-1	-1	27	-1	-1	48	-1	-1	15	64	39	-1	-1	3	-1	-1	57	-1	17	-1	-1	-1	29	-1	-1	-1	56	-1	54	10	60	7	23	-1	-1	-1	-1	12	-1	51	-1	-1	44	-1
54	-1	-1	-1	-1	34	-1	20	-1	-1	-1	8	22	-1	9	51	-1	42	-1	30	14	-1	56	-1	2	-1	-1	-1	-1	53	-1	-1	50	-1	-1	47	1	5	25	49	-1	-1	-1	64	16	-1	-1	13	-1	58	-1	-1	-1	28	-1	-1	59	-1	-1	27	36	48	-1	23
30	2	3	-1	50	-1	-1	-1	-1	-1	-1	26	32	-1	53	-1	-1	4	-1	-1	-1	-1	-1	19	-1	-1	-1	-1	7	-1	-1	-1	-1	-1	-1	-1	6	-1	9	12	21	49	-1	-1	38	25	28	47	-1	29	-1	-1	-1	-1	-1	-1	54	34	-1	39	37	-1	-1	-1
48	-1	49	-1	40	32	-1	-1	-1	44	58	21	-1	-1	-1	39	26	-1	-1	36	-1	-1	-1	-1	-1	-1	59	-1	-1	-1	41	-1	-1	14	4	35	-1	-1	28	56	-1	-1	-1	45	-1	20	3	-1	-1	-1	64	-1	53	-1	62	18	-1	33	-1	5	42	-1	2	-1
5	-1	22	-1	-1	42	-1	-1	-1	47	-1	25	56	-1	-1	1	-1	-1	21	-1	60	15	-1	-1	-1	-1	-1	-1	-1	44	58	-1	-1	54	-1	29	32	-1	-1	41	-1	-1	39	-1	24	-1	-1	26	57	37	-1	-1	-1	-1	-1	-1	-1	64	-1	45	38	-1	-1	3
-1	63	37	-1	57	14	-1	-1	27	43	49	-1	24	50	-1	-1	-1	-1	18	28	-1	22	3	-1	-1	-1	-1	23	45	-1	-1	-1	-1	-1	-1	-1	62	-1	-1	7	-1	60	-1	-1	9	42	-1	-1	-1	-1	-1	1	8	47	-1	41	-1	-1	-1	31	-1	-1	-1	-1
-1	-1	-1	-1	-1	-1	-1	-1	-1	23	-1	1	-1	29	-1	17	62	-1	-1	-1	-1	-1	-1	-1	-1	-1	32	-1	-1	18	63	-1	55	-1	-1	60	48	37	47	-1	-1	-1	-1	-1	28	53	14	-1	59	42	57	-1	-1	-1	25	-1	33	-1	-1	20	15	24	-1	-1
-1	35	41	-1	34	-1	-1	-1	14	-1	42	-1	-1	-1	3	37	63	12	-1	46	23	-1	-1	-1	-1	-1	-1	-1	-1	-1	-1	-1	-1	-1	-1	-1	-1	16	2	-1	29	20	-1	-1	-1	-1	-1	-1	-1	-1	-1	-1	-1	-1	-1	62	39	11	-1	49	26	-1	-1	-1
-1	-1	-1	9	-1	-1	-1	57	-1	-1	-1	6	53	-1	-1	-1	29	-1	33	-1	-1	-1	-1	-1	1	-1	-1	26	44	3	55	-1	-1	-1	-1	18	10	-1	15	11	4	-1	8	-1	-1	-1	-1	40	-1	-1	47	21	27	-1	-1	46	36	-1	-1	-1	-1	-1	-1	-1
22	-1	-1	-1	-1	-1	60	-1	-1	-1	9	-1	-1	47	-1	-1	-1	31	50	64	-1	49	-1	57	-1	14	-1	-1	8	-1	-1	-1	-1	21	-1	-1	-1	-1	-1	-1	33	-1	-1	-1	-1	10	38	-1	41	-1	-1	23	19	6	3	44	-1	51	-1	17	-1	-1	18	1
-1	-1	17	-1	-1	-1	52	-1	-1	-1	48	-1	49	-1	-1	24	-1	-1	61	-1	-1	34	6	-1	-1	57	-1	-1	-1	-1	-1	-1	53	-1	13	-1	-1	-1	-1	-1	22	-1	63	-1	-1	-1	-1	-1	-1	12	36	55	-1	51	-1	11	7	-1	25	-1	30	-1	-1	64
36	38	-1	-1	27	37	63	-1	-1	51	-1	-1	-1	64	-1	18	-1	-1	-1	47	21	-1	48	14	-1	41	-1	-1	-1	23	-1	-1	-1	-1	-1	-1	26	28	39	-1	17	16	-1	-1	-1	19	31	-1	45	-1	32	-1	29	-1	33	20	-1	-1	-1	-1	-1	-1	-1	53
-1	20	-1	16	-1	-1	39	-1	59	10	-1	-1	-1	12	15	26	-1	-1	-1	-1	-1	42	36	-1	-1	-1	-1	-1	-1	-1	-1	-1	-1	-1	-1	-1	-1	58	-1	-1	-1	13	-1	-1	-1	-1	45	-1	34	-1	53	4	-1	-1	-1	14	-1	21	-1	-1	-1	44	55	-1
-1	-1	42	-1	21	-1	18	-1	-1	-1	-1	38	-1	-1	-1	55	-1	-1	1	44	-1	-1	-1	-1	-1	61	-1	-1	34	-1	-1	-1	49	-1	-1	3	-1	36	64	35	-1	-1	58	-1	23	-1	51	-1	-1	-1	-1	-1	-1	-1	-1	-1	-1	-1	-1	50	46	62	-1	-1
55	-1	-1	-1	58	57	-1	31	-1	-1	-1	-1	-1	-1	48	29	-1	62	34	14	-1	12	25	60	-1	-1	-1	17	63	20	56	-1	13	-1	1	-1	-1	8	45	-1	-1	19	-1	-1	-1	-1	54	-1	7	-1	42	-1	59	-1	28	-1	21	-1	-1	-1	43	30	-1	52
-1	-1	-1	30	-1	-1	16	42	-1	-1	19	7	-1	-1	17	-1	22	9	-1	-1	-1	-1	-1	-1	-1	-1	26	50	1	8	-1	29	-1	-1	59	-1	14	56	55	-1	-1	-1	28	20	25	40	24	62	-1	-1	6	10	-1	-1	-1	-1	-1	23	5	63	3	64	4	-1
18	-1	23	-1	-1	61	-1	-1	13	-1	37	-1	31	59	-1	-1	20	17	-1	-1	-1	-1	-1	3	34	40	-1	21	25	38	-1	-1	9	47	-1	-1	-1	46	-1	63	-1	-1	-1	-1	-1	30	-1	-1	-1	15	-1	36	-1	-1	48	-1	-1	-1	51	-1	-1	-1	-1	-1
-1	-1	33	-1	-1	-1	-1	-1	45	52	53	-1	28	-1	-1	-1	-1	-1	59	21	-1	40	61	-1	-1	6	-1	-1	13	41	-1	-1	-1	-1	-1	15	51	34	-1	-1	-1	-1	-1	-1	36	-1	-1	-1	19	-1	-1	-1	26	38	44	-1	-1	-1	-1	29	18	-1	8	-1
-1	-1	13	-1	-1	6	3	-1	-1	-1	-1	-1	51	-1	-1	-1	-1	18	41	57	-1	33	-1	-1	-1	-1	-1	39	32	-1	-1	48	-1	61	-1	30	-1	19	-1	-1	27	-1	42	26	-1	-1	-1	-1	29	-1	9	8	-1	-1	-1	-1	49	-1	-1	-1	-1	-1	-1	28
60	-1	-1	-1	37	5	-1	-1	-1	30	-1	-1	-1	-1	-1	-1	50	7	-1	-1	38	-1	16	-1	-1	-1	-1	24	-1	-1	-1	36	-1	-1	-1	48	21	-1	-1	-1	-1	-1	33	-1	-1	23	-1	-1	58	-1	54	-1	-1	-1	53	35	41	-1	47	-1	-1	45	13	25
25	62	12	-1	45	-1	1	-1	20	-1	6	3	41	9	-1	38	-1	-1	-1	52	-1	-1	-1	32	31	7	-1	5	27	-1	-1	-1	18	4	-1	-1	-1	49	-1	-1	-1	-1	48	-1	-1	-1	-1	-1	-1	24	-1	-1	30	-1	-1	-1	-1	-1	-1	19	-1	-1	57	-1
38	-1	-1	-1	-1	-1	-1	-1	-1	-1	-1	14	26	-1	-1	-1	30	-1	35	55	37	-1	24	-1	-1	33	58	-1	23	-1	-1	4	-1	60	-1	-1	36	-1	-1	-1	-1	-1	61	34	-1	-1	-1	-1	-1	-1	-1	-1	-1	-1	-1	-1	-1	22	50	46	7	-1	-1	42
-1	-1	-1	48	-1	-1	36	9	-1	-1	10	50	-1	43	-1	63	34	44	-1	-1	-1	-1	-1	33	-1	-1	19	-1	16	21	-1	51	3	-1	-1	54	56	7	-1	-1	-1	-1	-1	-1	4	-1	-1	-1	24	52	-1	-1	-1	-1	-1	-1	18	-1	-1	25	-1	-1	53	-1
-1	33	20	54	59	58	-1	-1	34	12	14	-1	-1	39	-1	-1	57	21	-1	50	-1	-1	42	-1	-1	-1	-1	-1	-1	-1	47	8	-1	-1	-1	46	-1	40	27	51	41	-1	-1	-1	-1	-1	-1	-1	1	53	25	-1	-1	23	-1	64	-1	-1	-1	-1	35	29	-1	24
26	-1	38	-1	25	50	27	-1	-1	-1	-1	47	36	-1	32	20	-1	-1	53	24	-1	-1	-1	-1	-1	30	4	7	56	-1	61	-1	-1	64	-1	-1	49	13	-1	45	-1	-1	59	14	-1	-1	5	10	2	-1	-1	28	35	42	-1	9	-1	19	-1	-1	-1	52	31	17
-1	-1	-1	-1	-1	-1	45	-1	7	6	18	-1	29	-1	-1	-1	-1	54	14	15	-1	-1	-1	-1	13	20	-1	60	-1	-1	-1	-1	17	-1	-1	-1	-1	-1	-1	-1	-1	-1	36	-1	-1	-1	64	-1	-1	-1	-1	-1	-1	-1	-1	-1	-1	-1	-1	58	-1	-1	59	50
42	-1	40	-1	16	15	-1	37	57	21	-1	-1	23	-1	-1	5	-1	63	8	-1	-1	36	43	-1	14	10	-1	-1	17	1	-1	9	-1	-1	-1	-1	44	-1	-1	60	39	-1	-1	-1	52	61	50	-1	22	-1	12	-1	-1	11	34	33	-1	54	-1	-1	62	-1	-1	-1
-1	-1	56	55	44	46	-1	1	42	-1	4	-1	-1	-1	-1	41	-1	-1	-1	20	7	-1	-1	61	-1	-1	33	38	-1	39	25	-1	-1	-1	-1	-1	18	50	-1	-1	51	-1	-1	37	-1	24	30	-1	-1	-1	-1	-1	32	-1	54	49	-1	-1	15	64	-1	-1	-1	-1
-1	-1	18	-1	-1	-1	-1	12	-1	-1	-1	59	-1	3	-1	35	-1	-1	47	-1	-1	-1	30	-1	32	54	-1	63	6	-1	23	-1	24	5	15	37	-1	-1	-1	-1	-1	25	21	53	27	58	-1	-1	-1	-1	7	-1	13	-1	-1	-1	42	-1	-1	-1	9	51	-1	33
-1	24	-1	-1	8	35	-1	34	-1	-1	61	-1	27	-1	-1	-1	13	1	-1	10	-1	9	17	-1	-1	49	-1	-1	-1	15	-1	-1	-1	43	-1	22	59	-1	-1	20	-1	-1	-1	47	-1	-1	-1	-1	-1	-1	3	63	-1	44	41	-1	-1	56	2	28	-1	16	-1	36
-1	-1	11	-1	38	56	-1	-1	-1	50	-1	-1	-1	55	6	-1	43	24	-1	58	-1	16	8	44	59	-1	-1	-1	42	-1	-1	-1	7	-1	5	33	-1	52	62	27	64	41	-1	-1	48	46	17	61	49	3	-1	-1	-1	-1	-1	-1	-1	-1	-1	-1	-1	-1	-1	-1
-1	-1	21	31	-1	53	61	-1	-1	17	33	-1	-1	51	24	-1	-1	-1	37	60	-1	46	-1	-1	57	-1	29	-1	-1	-1	-1	-1	-1	-1	22	-1	64	-1	-1	10	55	54	-1	-1	-1	18	6	-1	-1	36	-1	-1	-1	-1	-1	30	43	-1	-1	-1	-1	-1	-1	48
-1	-1	1	-1	-1	-1	9	24	-1	34	47	-1	19	-1	-1	-1	23	-1	6	61	-1	-1	29	-1	-1	-1	63	-1	-1	40	7	-1	36	-1	-1	8	-1	-1	37	15	-1	-1	-1	-1	-1	33	-1	-1	-1	57	62	-1	-1	-1	32	-1	25	-1	45	-1	-1	58	-1	-1
-1	-1	-1	-1	-1	-1	37	-1	-1	-1	-1	-1	-1	-1	-1	-1	-1	-1	-1	38	-1	18	-1	21	-1	-1	-1	-1	-1	52	32	47	-1	34	-1	-1	55	26	61	59	63	-1	-1	-1	-1	-1	-1	-1	6	22	-1	-1	-1	-1	27	50	62	-1	13	-1	51	17	56	-1
-1	42	-1	5	-1	-1	51	50	-1	-1	30	18	-1	-1	22	-1	-1	33	-1	48	19	52	-1	-1	64	-1	41	-1	-1	6	31	24	-1	46	3	-1	38	-1	-1	44	-1	-1	-1	-1	-1	15	16	-1	-1	-1	-1	-1	-1	-1	-1	55	-1	-1	39	-1	-1	7	-1	-1
-1	22	55	-1	60	-1	-1	-1	37	26	13	40	-1	-1	29	59	15	-1	-1	-1	63	-1	-1	-1	39	-1	-1	36	20	-1	-1	-1	57	-1	-1	-1	50	-1	58	-1	-1	32	-1	-1	-1	-1	9	-1	-1	-1	56	14	42	7	-1	-1	-1	31	33	52	2	8	-1	41
34	27	-1	7	-1	-1	8	-1	-1	48	25	-1	-1	-1	-1	-1	-1	2	-1	-1	-1	50	-1	20	-1	-1	-1	-1	-1	4	-1	55	-1	-1	-1	-1	-1	17	-1	32	62	-1	-1	-1	-1	36	57	39	-1	9	37	44	51	41	-1	-1	-1	-1	-1	42	28	-1	-1	-1
-1	-1	-1	-1	41	63	-1	-1	-1	57	-1	42	9	35	16	-1	7	-1	-1	-1	-1	-1	-1	-1	-1	17	27	51	-1	-1	50	58	-1	23	2	-1	60	20	-1	-1	-1	-1	37	8	-1	-1	13	14	-1	-1	1	34	4	64	24	26	-1	-1	44	-1	54	59	38	61
61	-1	-1	-1	14	-1	57	-1	26	-1	-1	-1	13	58	-1	12	24	22	-1	-1	-1	-1	-1	48	-1	-1	44	-1	10	-1	-1	41	28	62	-1	-1	-1	21	-1	-1	19	38	25	33	-1	-1	-1	-1	-1	-1	-1	42	-1	-1	-1	15	-1	9	-1	-1	-1	11	-1	-1
-1	-1	-1	-1	42	-1	-1	-1	-1	-1	-1	51	47	30	41	31	21	-1	25	40	-1	-1	-1	26	-1	-1	-1	-1	53	-1	-1	18	60	36	-1	1	-1	9	-1	16	-1	43	-1	-1	-1	-1	-1	-1	27	-1	17	50	-1	56	-1	59	-1	58	24	-1	-1	33	52	-1
9	-1	27	64	-1	8	-1	-1	49	1	23	-1	57	40	10	-1	46	53	42	-1	-1	29	-1	-1	-1	-1	7	15	-1	-1	-1	37	41	-1	44	24	-1	3	-1	-1	-1	-1	-1	-1	-1	13	-1	48	12	-1	-1	43	-1	-1	51	21	-1	26	16	60	-1	6	-1	-1
-1	60	-1	2	-1	23	11	25	-1	-1	36	-1	-1	-1	-1	-1	9	-1	63	-1	-1	3	-1	54	-1	-1	-1	-1	55	-1	-1	43	-1	-1	-1	-1	52	29	14	-1	49	-1	-1	51	40	39	-1	-1	-1	61	22	53	44	-1	-1	-1	31	17	46	-1	-1	-1	-1	-1
-1	-1	7	41	-1	19	-1	-1	56	60	-1	15	-1	-1	-1	25	-1	-1	-1	34	18	-1	52	-1	-1	1	22	-1	-1	48	4	-1	-1	45	51	43	54	-1	-1	50	-1	-1	-1	-1	42	37	58	-1	-1	35	49	-1	-1	-1	-1	-1	44	62	-1	-1	13	-1	-1	-1
-1	-1	-1	15	-1	-1	-1	28	8	-1	-1	-1	-1	48	-1	50	11	-1	16	-1	-1	-1	51	-1	25	-1	-1	61	5	27	-1	59	-1	-1	-1	-1	-1	-1	22	-1	47	-1	24	12	46	60	-1	57	-1	-1	-1	-1	36	54	52	-1	-1	-1	64	2	45	21	40	-1
53	18	-1	56	3	-1	-1	-1	-1	-1	24	-1	54	-1	-1	21	41	-1	39	-1	-1	60	-1	-1	-1	-1	40	-1	-1	63	51	-1	-1	-1	-1	4	61	25	49	-1	36	-1	-1	29	-1	-1	27	-1	-1	-1	-1	6	45	8	-1	-1	-1	28	43	-1	-1	38	-1	-1
45	-1	51	59	-1	21	-1	-1	62	-1	46	-1	3	27	33	-1	-1	-1	19	32	-1	-1	-1	-1	-1	-1	39	14	-1	47	-1	-1	35	26	55	-1	40	-1	31	-1	-1	-1	16	-1	44	-1	-1	-1	20	48	34	-1	-1	60	-1	-1	-1	-1	42	8	-1	-1	-1	-1
64 
6 27 52 23
19 14 46 34
16 58 36 39
29 38 35 42
12 54 35 49
38 20 17 9
20 41 50 13
44 59 38 11
13 40 14 55
32 54 23 14
35 10 50 32
35 63 51 56
63 34 12 45
51 58 32 1
24 34 3 51
54 31 11 8
12 6 17 5
55 28 23 39
31 26 63 56
49 62 21 14
19 33 17 53
12 57 51 25
50 26 4 8
28 30 17 26
54 34 3 9
46 33 35 64
6 15 15 35
49 44 39 23
48 39 28 35
22 50 62 31
47 10 34 56
49 9 6 7
61 8 63 32
7 60 23 23
31 28 21 22
23 55 1 36
41 22 43 57
25 52 54 55
7 44 33 58
29 32 20 29
7 45 33 43
4 30 21 55
22 43 46 49
39 17 34 31
46 14 32 23
41 53 15 23
34 2 36 25
12 25 40 63
33 32 27 54
13 53 50 61
2 38 27 26
22 19 31 46
61 60 39 48
40 3 51 2
14 23 42 34
2 44 57 48
64 22 32 34
34 64 48 28
3 46 39 61
36 58 37 30
42 35 20 42
56 24 48 15
6 20 37 5
33 27 2 32
